c "129981.clq"
p edge 100 1344
e 1 17
e 1 18
e 1 21
e 1 22
e 1 23
e 1 24
e 1 25
e 1 27
e 1 30
e 1 43
e 1 52
e 1 53
e 1 61
e 1 63
e 1 67
e 1 68
e 1 69
e 1 71
e 1 75
e 1 78
e 1 79
e 1 86
e 1 92
e 1 99
e 2 17
e 2 18
e 2 19
e 2 20
e 2 24
e 2 25
e 2 27
e 2 29
e 2 40
e 2 42
e 2 56
e 2 68
e 2 75
e 2 85
e 3 17
e 3 18
e 3 19
e 3 20
e 3 21
e 3 22
e 3 23
e 3 25
e 3 31
e 3 37
e 3 38
e 3 45
e 3 47
e 3 49
e 3 52
e 3 59
e 3 62
e 3 77
e 3 92
e 4 17
e 4 20
e 4 22
e 4 23
e 4 25
e 4 28
e 4 34
e 4 37
e 4 39
e 4 58
e 4 60
e 4 67
e 4 80
e 4 89
e 4 90
e 4 92
e 4 99
e 4 100
e 5 17
e 5 18
e 5 19
e 5 20
e 5 23
e 5 26
e 5 28
e 5 29
e 5 30
e 5 32
e 5 33
e 5 36
e 5 41
e 5 42
e 5 52
e 5 53
e 5 57
e 5 79
e 5 80
e 5 86
e 5 92
e 6 17
e 6 18
e 6 19
e 6 20
e 6 21
e 6 23
e 6 29
e 6 34
e 6 35
e 6 39
e 6 40
e 6 43
e 6 44
e 6 46
e 6 50
e 6 51
e 6 53
e 6 54
e 6 57
e 6 64
e 6 70
e 6 71
e 6 73
e 6 77
e 6 82
e 6 92
e 7 17
e 7 18
e 7 19
e 7 24
e 7 25
e 7 28
e 7 31
e 7 32
e 7 33
e 7 47
e 7 49
e 7 51
e 7 54
e 7 65
e 7 79
e 7 85
e 7 95
e 7 99
e 8 17
e 8 18
e 8 19
e 8 20
e 8 21
e 8 22
e 8 24
e 8 30
e 8 31
e 8 32
e 8 33
e 8 39
e 8 40
e 8 46
e 8 48
e 8 55
e 8 58
e 8 60
e 8 72
e 8 79
e 8 89
e 9 17
e 9 18
e 9 19
e 9 20
e 9 21
e 9 22
e 9 24
e 9 25
e 9 26
e 9 27
e 9 28
e 9 33
e 9 35
e 9 37
e 9 38
e 9 40
e 9 41
e 9 43
e 9 45
e 9 46
e 9 48
e 9 49
e 9 51
e 9 53
e 9 61
e 9 66
e 9 69
e 9 70
e 9 72
e 9 73
e 9 79
e 9 83
e 9 84
e 9 90
e 9 91
e 9 96
e 9 97
e 10 17
e 10 18
e 10 19
e 10 20
e 10 21
e 10 22
e 10 23
e 10 24
e 10 25
e 10 26
e 10 27
e 10 35
e 10 36
e 10 37
e 10 38
e 10 42
e 10 43
e 10 45
e 10 55
e 10 60
e 10 63
e 10 67
e 10 68
e 10 72
e 10 78
e 10 95
e 10 100
e 11 17
e 11 18
e 11 19
e 11 20
e 11 21
e 11 22
e 11 23
e 11 26
e 11 28
e 11 31
e 11 33
e 11 35
e 11 36
e 11 39
e 11 43
e 11 44
e 11 49
e 11 51
e 11 52
e 11 69
e 11 72
e 11 73
e 11 79
e 11 81
e 11 83
e 11 86
e 11 88
e 11 93
e 11 94
e 11 98
e 11 99
e 12 17
e 12 18
e 12 19
e 12 21
e 12 22
e 12 24
e 12 26
e 12 27
e 12 30
e 12 35
e 12 37
e 12 39
e 12 50
e 12 52
e 12 58
e 12 59
e 12 60
e 12 72
e 12 74
e 12 76
e 12 79
e 12 84
e 13 17
e 13 18
e 13 19
e 13 20
e 13 21
e 13 23
e 13 27
e 13 28
e 13 29
e 13 30
e 13 32
e 13 35
e 13 39
e 13 41
e 13 45
e 13 46
e 13 47
e 13 56
e 13 62
e 13 87
e 13 90
e 14 17
e 14 18
e 14 19
e 14 20
e 14 21
e 14 22
e 14 23
e 14 24
e 14 25
e 14 26
e 14 27
e 14 28
e 14 30
e 14 33
e 14 34
e 14 35
e 14 37
e 14 41
e 14 42
e 14 44
e 14 47
e 14 48
e 14 54
e 14 65
e 14 66
e 14 68
e 14 71
e 14 74
e 14 77
e 14 87
e 14 93
e 14 94
e 14 97
e 15 17
e 15 18
e 15 19
e 15 20
e 15 21
e 15 22
e 15 24
e 15 27
e 15 29
e 15 31
e 15 32
e 15 33
e 15 35
e 15 44
e 15 49
e 15 60
e 15 62
e 15 84
e 15 88
e 16 17
e 16 18
e 16 19
e 16 20
e 16 21
e 16 22
e 16 23
e 16 24
e 16 25
e 16 26
e 16 29
e 16 31
e 16 34
e 16 35
e 16 36
e 16 38
e 16 39
e 16 40
e 16 43
e 16 45
e 16 51
e 16 53
e 16 58
e 16 62
e 16 63
e 16 65
e 16 73
e 16 82
e 16 92
e 16 93
e 16 96
e 16 100
e 17 18
e 17 19
e 17 20
e 17 21
e 17 22
e 17 23
e 17 24
e 17 26
e 17 27
e 17 28
e 17 30
e 17 31
e 17 32
e 17 33
e 17 34
e 17 35
e 17 36
e 17 37
e 17 38
e 17 39
e 17 40
e 17 42
e 17 44
e 17 45
e 17 47
e 17 48
e 17 49
e 17 50
e 17 54
e 17 56
e 17 57
e 17 59
e 17 61
e 17 62
e 17 63
e 17 67
e 17 68
e 17 75
e 17 76
e 17 78
e 17 89
e 17 92
e 17 98
e 17 99
e 18 19
e 18 20
e 18 21
e 18 22
e 18 23
e 18 24
e 18 25
e 18 26
e 18 28
e 18 29
e 18 30
e 18 31
e 18 32
e 18 33
e 18 34
e 18 36
e 18 39
e 18 43
e 18 44
e 18 45
e 18 47
e 18 50
e 18 51
e 18 52
e 18 55
e 18 61
e 18 66
e 18 68
e 18 69
e 18 72
e 18 83
e 18 87
e 18 89
e 18 93
e 18 95
e 18 96
e 19 20
e 19 21
e 19 22
e 19 23
e 19 25
e 19 26
e 19 27
e 19 28
e 19 29
e 19 30
e 19 32
e 19 33
e 19 34
e 19 36
e 19 37
e 19 42
e 19 43
e 19 44
e 19 45
e 19 47
e 19 48
e 19 49
e 19 50
e 19 51
e 19 54
e 19 55
e 19 60
e 19 61
e 19 64
e 19 65
e 19 67
e 19 68
e 19 70
e 19 72
e 19 75
e 19 78
e 19 81
e 19 83
e 19 94
e 19 96
e 19 98
e 19 99
e 20 21
e 20 22
e 20 23
e 20 24
e 20 25
e 20 26
e 20 27
e 20 28
e 20 29
e 20 30
e 20 31
e 20 33
e 20 34
e 20 35
e 20 36
e 20 40
e 20 41
e 20 42
e 20 44
e 20 45
e 20 46
e 20 48
e 20 51
e 20 55
e 20 58
e 20 59
e 20 63
e 20 64
e 20 66
e 20 68
e 20 70
e 20 74
e 20 80
e 20 87
e 20 88
e 20 89
e 20 92
e 20 100
e 21 22
e 21 23
e 21 24
e 21 25
e 21 26
e 21 27
e 21 28
e 21 29
e 21 30
e 21 31
e 21 32
e 21 33
e 21 34
e 21 36
e 21 38
e 21 39
e 21 47
e 21 48
e 21 49
e 21 51
e 21 52
e 21 55
e 21 56
e 21 58
e 21 60
e 21 63
e 21 65
e 21 66
e 21 67
e 21 71
e 21 74
e 21 76
e 21 77
e 21 81
e 21 82
e 21 87
e 21 90
e 21 92
e 22 23
e 22 24
e 22 25
e 22 26
e 22 27
e 22 28
e 22 29
e 22 30
e 22 31
e 22 35
e 22 36
e 22 37
e 22 38
e 22 40
e 22 41
e 22 42
e 22 43
e 22 44
e 22 45
e 22 48
e 22 50
e 22 53
e 22 54
e 22 56
e 22 61
e 22 62
e 22 63
e 22 64
e 22 66
e 22 67
e 22 68
e 22 70
e 22 76
e 22 80
e 22 83
e 22 84
e 22 86
e 22 87
e 22 89
e 22 91
e 22 93
e 22 94
e 22 100
e 23 24
e 23 25
e 23 26
e 23 28
e 23 29
e 23 30
e 23 32
e 23 34
e 23 35
e 23 36
e 23 37
e 23 38
e 23 39
e 23 40
e 23 42
e 23 47
e 23 49
e 23 50
e 23 57
e 23 58
e 23 59
e 23 61
e 23 65
e 23 74
e 23 76
e 23 78
e 23 79
e 23 84
e 23 88
e 23 90
e 23 91
e 23 92
e 23 95
e 24 25
e 24 26
e 24 27
e 24 28
e 24 29
e 24 30
e 24 31
e 24 32
e 24 34
e 24 35
e 24 37
e 24 38
e 24 39
e 24 41
e 24 42
e 24 43
e 24 46
e 24 48
e 24 51
e 24 52
e 24 53
e 24 54
e 24 55
e 24 57
e 24 60
e 24 64
e 24 69
e 24 70
e 24 73
e 24 74
e 24 81
e 24 82
e 24 83
e 24 85
e 24 92
e 24 93
e 24 94
e 25 26
e 25 27
e 25 28
e 25 29
e 25 30
e 25 31
e 25 32
e 25 33
e 25 38
e 25 39
e 25 40
e 25 41
e 25 44
e 25 45
e 25 46
e 25 47
e 25 51
e 25 53
e 25 55
e 25 56
e 25 58
e 25 59
e 25 60
e 25 61
e 25 62
e 25 63
e 25 64
e 25 66
e 25 71
e 25 72
e 25 74
e 25 75
e 25 76
e 25 78
e 25 81
e 25 85
e 25 87
e 25 90
e 25 91
e 25 96
e 25 97
e 25 98
e 25 100
e 26 27
e 26 29
e 26 31
e 26 32
e 26 33
e 26 34
e 26 35
e 26 36
e 26 37
e 26 39
e 26 40
e 26 41
e 26 44
e 26 46
e 26 47
e 26 48
e 26 49
e 26 50
e 26 57
e 26 62
e 26 64
e 26 75
e 26 80
e 26 88
e 26 90
e 26 94
e 26 96
e 26 98
e 26 99
e 27 34
e 27 36
e 27 41
e 27 44
e 27 49
e 27 50
e 27 52
e 27 55
e 27 61
e 27 70
e 27 76
e 27 77
e 27 78
e 27 80
e 27 81
e 27 86
e 27 91
e 27 94
e 27 95
e 27 97
e 27 98
e 28 29
e 28 31
e 28 32
e 28 33
e 28 37
e 28 38
e 28 40
e 28 42
e 28 44
e 28 50
e 28 51
e 28 54
e 28 56
e 28 57
e 28 58
e 28 62
e 28 63
e 28 70
e 28 73
e 28 77
e 28 79
e 28 81
e 28 83
e 28 85
e 28 86
e 28 93
e 28 95
e 28 97
e 28 98
e 29 30
e 29 31
e 29 32
e 29 34
e 29 36
e 29 38
e 29 39
e 29 41
e 29 43
e 29 46
e 29 50
e 29 51
e 29 52
e 29 53
e 29 59
e 29 64
e 29 67
e 29 72
e 29 93
e 29 96
e 30 37
e 30 41
e 30 42
e 30 43
e 30 55
e 30 59
e 30 64
e 30 68
e 30 78
e 30 92
e 30 94
e 31 32
e 31 34
e 31 35
e 31 38
e 31 41
e 31 45
e 31 48
e 31 50
e 31 53
e 31 54
e 31 57
e 31 62
e 31 63
e 31 64
e 31 65
e 31 67
e 31 77
e 31 79
e 32 33
e 32 34
e 32 40
e 32 43
e 32 45
e 32 46
e 32 47
e 32 51
e 32 54
e 32 55
e 32 56
e 32 62
e 32 63
e 32 66
e 32 72
e 32 86
e 32 93
e 33 44
e 33 47
e 33 49
e 33 57
e 33 65
e 33 72
e 33 75
e 33 76
e 33 80
e 33 82
e 33 84
e 33 86
e 33 89
e 33 94
e 33 96
e 33 97
e 33 100
e 34 36
e 34 37
e 34 38
e 34 39
e 34 41
e 34 42
e 34 48
e 34 49
e 34 51
e 34 55
e 34 57
e 34 65
e 34 66
e 34 69
e 34 72
e 34 74
e 35 36
e 35 38
e 35 40
e 35 42
e 35 54
e 35 57
e 35 62
e 35 66
e 35 70
e 35 71
e 35 73
e 35 76
e 35 90
e 35 92
e 35 93
e 35 96
e 36 37
e 36 38
e 36 40
e 36 44
e 36 46
e 36 47
e 36 49
e 36 52
e 36 53
e 36 57
e 36 63
e 36 67
e 36 69
e 36 73
e 36 76
e 36 77
e 36 82
e 36 85
e 36 89
e 36 95
e 36 96
e 36 97
e 36 99
e 37 41
e 37 44
e 37 45
e 37 48
e 37 49
e 37 56
e 37 59
e 37 63
e 37 66
e 37 75
e 37 88
e 37 94
e 37 95
e 37 99
e 38 52
e 38 56
e 38 59
e 38 60
e 38 64
e 38 65
e 38 70
e 38 73
e 38 75
e 38 77
e 38 84
e 38 91
e 38 95
e 39 40
e 39 41
e 39 42
e 39 43
e 39 46
e 39 48
e 39 50
e 39 51
e 39 56
e 39 57
e 39 60
e 39 64
e 39 65
e 39 68
e 39 71
e 39 80
e 39 82
e 39 83
e 39 85
e 39 87
e 39 89
e 39 93
e 39 95
e 39 97
e 39 98
e 40 47
e 40 50
e 40 52
e 40 55
e 40 60
e 40 65
e 40 67
e 40 68
e 40 74
e 40 80
e 40 85
e 40 96
e 40 99
e 40 100
e 41 42
e 41 43
e 41 46
e 41 48
e 41 52
e 41 57
e 41 58
e 41 59
e 41 71
e 41 75
e 41 79
e 41 81
e 42 43
e 42 45
e 42 46
e 42 48
e 42 54
e 42 56
e 42 59
e 42 61
e 42 65
e 42 67
e 42 69
e 42 73
e 42 74
e 42 77
e 42 90
e 42 95
e 42 100
e 43 52
e 43 64
e 43 66
e 43 80
e 43 83
e 43 85
e 43 87
e 43 90
e 43 93
e 43 96
e 43 98
e 44 45
e 44 46
e 44 47
e 44 56
e 44 61
e 44 62
e 44 66
e 44 69
e 44 70
e 44 74
e 44 77
e 44 80
e 44 82
e 44 83
e 44 85
e 44 91
e 45 46
e 45 53
e 45 58
e 45 59
e 45 70
e 45 71
e 45 75
e 45 76
e 45 81
e 45 91
e 45 94
e 46 53
e 46 56
e 46 58
e 46 65
e 46 66
e 46 67
e 46 71
e 46 75
e 46 88
e 46 91
e 46 93
e 47 53
e 47 61
e 47 62
e 47 73
e 47 75
e 47 81
e 47 87
e 47 89
e 47 99
e 48 49
e 48 50
e 48 52
e 48 54
e 48 55
e 48 64
e 48 66
e 48 71
e 48 72
e 48 74
e 48 77
e 48 78
e 48 82
e 48 83
e 48 87
e 48 94
e 48 95
e 48 97
e 48 100
e 49 50
e 49 54
e 49 56
e 49 57
e 49 60
e 49 61
e 49 68
e 49 75
e 49 77
e 49 82
e 49 84
e 49 88
e 49 92
e 50 62
e 50 75
e 50 81
e 50 85
e 50 98
e 51 53
e 51 54
e 51 55
e 51 60
e 51 70
e 51 76
e 51 80
e 51 96
e 51 100
e 52 53
e 52 58
e 52 63
e 52 67
e 52 78
e 52 88
e 52 94
e 53 54
e 53 55
e 53 57
e 53 58
e 53 59
e 53 60
e 53 68
e 53 69
e 53 70
e 53 73
e 53 74
e 53 80
e 53 85
e 53 86
e 53 93
e 53 94
e 54 59
e 54 61
e 54 63
e 54 73
e 54 82
e 54 83
e 54 86
e 54 88
e 54 95
e 54 98
e 55 56
e 55 58
e 55 68
e 55 69
e 55 70
e 55 71
e 55 73
e 55 78
e 55 82
e 55 99
e 56 59
e 56 61
e 56 63
e 56 65
e 56 66
e 56 69
e 56 71
e 56 72
e 56 76
e 56 85
e 56 91
e 57 58
e 57 85
e 57 86
e 58 61
e 58 62
e 58 84
e 58 89
e 58 100
e 59 60
e 59 64
e 59 69
e 59 72
e 59 76
e 59 79
e 59 80
e 59 95
e 60 78
e 60 81
e 60 84
e 60 88
e 60 95
e 60 97
e 60 98
e 61 64
e 61 65
e 61 67
e 61 69
e 61 70
e 61 74
e 61 77
e 61 79
e 61 90
e 61 93
e 62 68
e 62 71
e 62 73
e 62 77
e 62 80
e 63 69
e 63 71
e 63 76
e 63 82
e 63 86
e 63 88
e 63 91
e 63 98
e 64 69
e 64 78
e 65 74
e 65 76
e 65 77
e 65 78
e 65 83
e 65 90
e 66 67
e 66 83
e 66 99
e 66 100
e 67 73
e 67 78
e 67 86
e 67 87
e 67 88
e 67 90
e 67 91
e 67 96
e 67 97
e 68 81
e 68 83
e 69 71
e 69 72
e 69 78
e 69 79
e 69 80
e 69 85
e 70 74
e 70 79
e 70 82
e 70 90
e 70 97
e 70 98
e 71 87
e 71 88
e 71 97
e 72 89
e 73 89
e 73 97
e 74 75
e 74 81
e 74 84
e 74 86
e 74 87
e 75 79
e 75 83
e 75 84
e 75 91
e 75 100
e 76 82
e 77 84
e 77 87
e 77 89
e 77 90
e 77 92
e 77 98
e 78 81
e 78 84
e 78 89
e 78 100
e 79 81
e 79 84
e 79 87
e 79 88
e 79 90
e 79 91
e 79 95
e 80 86
e 80 88
e 80 94
e 81 82
e 81 84
e 81 99
e 82 96
e 82 99
e 83 85
e 83 86
e 83 98
e 84 91
e 86 96
e 87 89
e 87 93
e 87 99
e 87 100
e 88 91
e 88 94
e 88 97
e 90 92
e 94 97
